# Objective value = 2722.33
I_0_0 781
I_0_1 1051
I_0_2 1035
I_0_3 924
I_0_4 1009
I_0_5 908
I_0_6 1178
I_1_0 166
I_1_1 83
I_1_2 1.6599999999999997e+02
I_1_3 8.2999999999999972e+01
I_1_4 -3.5527136788005009e-14
I_1_5 166
I_1_6 83
I_2_0 62
I_2_1 31
I_2_2 62
I_2_3 3.0999999999999996e+01
I_2_4 0
I_2_5 62
I_2_6 3.0999999999999982e+01
I_3_0 29
I_3_1 0
I_3_2 29
I_3_3 0
I_3_4 29
I_3_5 29
I_3_6 0
I_4_0 154
I_4_1 7.6999999999999986e+01
I_4_2 0
I_4_3 154
I_4_4 1.5400000000000003e+02
I_4_5 7.7000000000000028e+01
I_4_6 0
I_5_0 100
I_5_1 50
I_5_2 0
I_5_3 1.0000000000000006e+02
I_5_4 100
I_5_5 50
I_5_6 0
q_1_0 0
q_1_1 1.6599999999999997e+02
q_1_2 0
q_1_3 0
q_1_4 2.4900000000000003e+02
q_1_5 0
q_2_0 0
q_2_1 62
q_2_2 0
q_2_3 0
q_2_4 93
q_2_5 0
q_3_0 0
q_3_1 58
q_3_2 0
q_3_3 58
q_3_4 29
q_3_5 0
q_4_0 -8.5487172896137054e-15
q_4_1 0
q_4_2 231
q_4_3 7.7000000000000028e+01
q_4_4 0
q_4_5 0
q_5_0 0
q_5_1 0
q_5_2 1.5000000000000006e+02
q_5_3 4.9999999999999972e+01
q_5_4 0
q_5_5 0
y_0_0 -1.6653345369377348e-16
y_0_1 1
y_0_2 1
y_0_3 1
y_0_4 1
y_0_5 0
y_1_0 0
y_1_1 1
y_1_2 0
y_1_3 0
y_1_4 1
y_1_5 0
y_2_0 0
y_2_1 1
y_2_2 0
y_2_3 0
y_2_4 1
y_2_5 0
y_3_0 0
y_3_1 1
y_3_2 0
y_3_3 1
y_3_4 1
y_3_5 0
y_4_0 -1.1102230246251565e-16
y_4_1 0
y_4_2 1
y_4_3 1
y_4_4 0
y_4_5 0
y_5_0 0
y_5_1 0
y_5_2 1.0000000000000004e+00
y_5_3 1
y_5_4 0
y_5_5 0
x_0_1_0 0
x_0_1_1 0
x_0_1_2 0
x_0_1_3 0
x_0_1_4 0
x_0_1_5 0
x_0_2_0 0
x_0_2_1 1
x_0_2_2 0
x_0_2_3 0
x_0_2_4 1
x_0_2_5 0
x_0_3_0 0
x_0_3_1 1
x_0_3_2 0
x_0_3_3 1
x_0_3_4 1
x_0_3_5 0
x_0_4_0 -2.2204460492503131e-16
x_0_4_1 0
x_0_4_2 1
x_0_4_3 0
x_0_4_4 0
x_0_4_5 0
x_0_5_0 -2.2204460492503131e-16
x_0_5_1 0
x_0_5_2 1
x_0_5_3 1
x_0_5_4 0
x_0_5_5 0
x_1_2_0 0
x_1_2_1 1
x_1_2_2 0
x_1_2_3 0
x_1_2_4 1
x_1_2_5 0
x_1_3_0 0
x_1_3_1 1
x_1_3_2 0
x_1_3_3 0
x_1_3_4 1
x_1_3_5 0
x_1_4_0 0
x_1_4_1 0
x_1_4_2 0
x_1_4_3 0
x_1_4_4 0
x_1_4_5 0
x_1_5_0 0
x_1_5_1 0
x_1_5_2 0
x_1_5_3 0
x_1_5_4 0
x_1_5_5 0
x_2_3_0 0
x_2_3_1 0
x_2_3_2 0
x_2_3_3 0
x_2_3_4 0
x_2_3_5 0
x_2_4_0 0
x_2_4_1 0
x_2_4_2 0
x_2_4_3 0
x_2_4_4 0
x_2_4_5 0
x_2_5_0 0
x_2_5_1 0
x_2_5_2 0
x_2_5_3 0
x_2_5_4 0
x_2_5_5 0
x_3_4_0 0
x_3_4_1 0
x_3_4_2 0
x_3_4_3 1
x_3_4_4 0
x_3_4_5 0
x_3_5_0 0
x_3_5_1 0
x_3_5_2 0
x_3_5_3 0
x_3_5_4 0
x_3_5_5 0
x_4_5_0 -4.4408920985006262e-16
x_4_5_1 0
x_4_5_2 1.0000000000000009e+00
x_4_5_3 1
x_4_5_4 0
x_4_5_5 0
